(declare-const seq3  (Seq Int))
(declare-const seq10  (Seq Int))
(declare-const seq12  (Seq Int))
(assert (seq.suffixof (seq.++ (seq.unit (seq.len (seq.++ seq12          seq3 ))) seq3) seq10))
(check-sat)
